Input: forum-13crafb.prec25.dzn
============================================================
Total Runtime: 4.2468 seconds
Input parsing: 0.0051 seconds
Constraint building: 0.9533 seconds
MaxSAT solving: 2.6533 seconds
============================================================

Total variables: 223804
Total clauses: 471968
MaxSAT found with cost: 0
NO SOLUTION FOUND
